90 15282874
28 31 33 60 37 49 57 80 8 77 48 36 44 39 29 72 11 6 13 89 55 15 38 35 9 24 17 56 45 69 32 27 40 68 20 71 75 64 19 12 2 25 65 22 63 84 90 76 26 7 43 88 61 34 4 53 62 51 42 70 3 74 58 86 52 47 67 1 81 10 50 66 18 83 14 41 82 85 54 21 5 87 23 30 16 46 78 79 59 73 
